0 45 
1 50 
2 49 
3 51 
4 49 
5 45 
6 45 
7 41 
8 39 
9 35 
10 36 
11 33 
12 33 
13 33 
14 29 
15 28 
16 29 
17 26 
18 27 
19 24 
20 25 
21 24 
22 21 
23 19 
24 20 
25 16 
26 16 
27 15 
28 14 
29 13 
30 13 
31 13 
32 10 
33 9 
34 7 
35 8 
36 6 
37 7 
38 4 
39 3 
40 2 
41 0 
42 1 
43 1 
44 0 
45 0 

